17	4	3
10	10	11	19	19	30	42	
0	0	0	0	0	2	9	10	4	9	1	3	2	3	4
5	0	0	8	0	9	4	1	8	7	4	3	5	6	7
6	0	0	0	5	3	10	8	4	9	7	2	8	17
8	5	0	0	0	3	4	8	10	8	9	3	11	16	17
6	0	0	0	4	5	2	8	9	1	7	2	9	17
125	0	0	4	0	2	3	6	1	6	4	1	17
100	0	0	1	0	2	4	7	3	1	4	1	17
150	0	0	6	0	6	4	4	3	8	2	3	10	15	17
125	0	3	0	0	9	10	5	7	9	3	3	12	13	14
200	0	0	0	3	5	4	5	3	2	6	1	11
250	0	0	0	1	9	3	8	4	4	3	1	17
200	0	0	0	8	7	5	7	4	7	7	1	17
9	0	0	0	4	7	2	1	10	5	8	2	16	17
7	0	0	0	1	1	3	8	6	10	6	1	17
3	0	0	2	0	9	4	10	4	7	1	2	16	17
9	0	0	1	0	9	6	4	7	9	7	2	17	17
0	0	0	0	0	9	6	2	6	9	8	0
